NAME 
ROWS
 N  OBJ
 L  R0      
 E  R1      
 E  R2      
 E  R3      
 E  R4      
 E  R5      
 E  R6      
 E  R7      
 E  R8      
 E  R9      
 E  R10     
 E  R11     
 E  R12     
 E  R13     
 E  R14     
 E  R15     
COLUMNS
    MARKER    'MARKER'                 'INTORG'
    I0(8)     OBJ       -100
    I0(8)     R0        1
    I0(8)     R1        18
    I0(8)     R2        9
    I0(8)     R4        4
    I0(8)     R5        6
    I0(8)     R6        5
    I0(8)     R7        4
    I0(8)     R15       1
    I1(7)     OBJ       130
    I1(7)     R0        179
    I1(7)     R1        7
    I1(7)     R3        3
    I1(7)     R5        18
    I1(7)     R6        7
    I1(7)     R7        8
    I1(7)     R15       1
    I2(7)     OBJ       31
    I2(7)     R0        -102
    I2(7)     R1        19
    I2(7)     R2        11
    I2(7)     R5        4
    I2(7)     R6        6
    I2(7)     R7        7
    I2(7)     R15       1
    I3(6)     OBJ       -101
    I3(6)     R0        158
    I3(6)     R1        16
    I3(6)     R2        -1
    I3(6)     R3        10
    I3(6)     R7        7
    I3(6)     R15       1
    I4(6)     OBJ       -71
    I4(6)     R0        -175
    I4(6)     R2        18
    I4(6)     R3        9
    I4(6)     R4        1
    I4(6)     R6        8
    I4(6)     R15       1
    I5(7)     OBJ       176
    I5(7)     R0        -85
    I5(7)     R2        6
    I5(7)     R3        9
    I5(7)     R4        14
    I5(7)     R6        -1
    I5(7)     R7        9
    I5(7)     R15       1
    I6(5)     OBJ       41
    I6(5)     R0        -108
    I6(5)     R1        12
    I6(5)     R4        17
    I6(5)     R6        1
    I6(5)     R15       1
    MARKER    'MARKER'                 'INTEND'
    C7(10)    OBJ       -2
    C7(10)    R0        8
    C7(10)    R3        9
    C7(10)    R4        2
    C7(10)    R5        1
    C7(10)    R6        6
    C7(10)    R7        3
    C7(10)    R8        8
    C7(10)    R11       3
    C7(10)    R12       2
    C7(10)    R13       12
    C8(10)    OBJ       -2
    C8(10)    R0        -2
    C8(10)    R2        11
    C8(10)    R4        5
    C8(10)    R6        3
    C8(10)    R8        5
    C8(10)    R9        2
    C8(10)    R10       6
    C8(10)    R11       6
    C8(10)    R13       8
    C8(10)    R14       17
    C9(10)    R0        -5
    C9(10)    R1        11
    C9(10)    R2        14
    C9(10)    R3        9
    C9(10)    R4        17
    C9(10)    R10       5
    C9(10)    R11       16
    C9(10)    R12       11
    C9(10)    R13       10
    C9(10)    R14       7
    C10(8)    OBJ       -6
    C10(8)    R0        -7
    C10(8)    R1        10
    C10(8)    R3        10
    C10(8)    R4        17
    C10(8)    R5        15
    C10(8)    R7        12
    C10(8)    R8        12
    C10(8)    R12       3
    C11(12)   OBJ       -9
    C11(12)   R0        2
    C11(12)   R1        5
    C11(12)   R2        12
    C11(12)   R4        8
    C11(12)   R5        10
    C11(12)   R6        12
    C11(12)   R7        11
    C11(12)   R8        18
    C11(12)   R9        4
    C11(12)   R10       -1
    C11(12)   R12       7
    C11(12)   R13       10
    C12(10)   R0        -6
    C12(10)   R1        10
    C12(10)   R2        1
    C12(10)   R3        3
    C12(10)   R8        18
    C12(10)   R9        -1
    C12(10)   R10       9
    C12(10)   R11       15
    C12(10)   R13       10
    C12(10)   R14       2
    C13(12)   OBJ       7
    C13(12)   R0        -8
    C13(12)   R3        17
    C13(12)   R4        10
    C13(12)   R5        11
    C13(12)   R6        5
    C13(12)   R7        4
    C13(12)   R8        8
    C13(12)   R9        18
    C13(12)   R11       13
    C13(12)   R12       17
    C13(12)   R13       8
    C13(12)   R14       3
    C14(9)    R0        -4
    C14(9)    R2        10
    C14(9)    R3        4
    C14(9)    R4        -1
    C14(9)    R7        18
    C14(9)    R9        15
    C14(9)    R11       19
    C14(9)    R12       2
    C14(9)    R14       13
    C15(1)    R1        1
    C16(1)    R2        1
    C17(1)    R3        1
    C18(1)    R4        1
    C19(1)    R5        1
    C20(1)    R6        1
    C21(1)    R7        1
    C22(1)    R8        1
    C23(1)    R9        1
    C24(1)    R10       1
    C25(1)    R11       1
    C26(1)    R12       1
    C27(1)    R13       1
    C28(1)    R14       1
    C29(1)    R15       1
RHS
    RHS1      R0        1.3751071895424838e+02
    RHS1      R1        87
    RHS1      R2        83
    RHS1      R3        87
    RHS1      R4        77
    RHS1      R5        57
    RHS1      R6        54
    RHS1      R7        91
    RHS1      R8        66
    RHS1      R9        74
    RHS1      R10       99
    RHS1      R11       72
    RHS1      R12       73
    RHS1      R13       69
    RHS1      R14       56
    RHS1      R15       2
BOUNDS
 UP BND1      I0(8)     1
 UP BND1      I1(7)     1
 UP BND1      I2(7)     1
 UP BND1      I3(6)     1
 UP BND1      I4(6)     1
 UP BND1      I5(7)     1
 UP BND1      I6(5)     1
ENDATA
